18
11 16
11 14
11 1
11 0
11 6
11 8
11 4
11 15
16 15
16 7
16 8
16 2
16 4
16 9
16 5
14 17
14 3
14 8
14 1
14 12
14 15
14 2
17 10
17 6
17 0
17 5
17 8
17 2
17 7
6 9
6 5
6 10
6 15
6 12
6 13
9 8
9 0
9 15
9 3
9 1
9 13
4 7
4 12
4 13
4 10
4 5
4 3
7 12
7 0
7 10
7 2
7 5
1 3
1 15
1 2
1 13
1 0
3 0
3 10
3 12
3 8
10 0
10 12
10 2
5 13
5 8
5 12
12 13
13 2
13 15
0 8
15 2
